p cnf 18 20
1 -3 6 0
2 -1 6 0
-1 2 4 0
-4 1 14 0
-5 4 2 0
-6 10 13 0
8 -18 6 0
7 -12 -15 0
9 11 14 0
-10 -2 17 0
-11 16 17 0
12 -10 17 0
-13 -12 15 0
14 -4 16 0
-9 14 16 0
-15 -7 -13 0
17 -5 -16 0
16 -9 -11 0
-18 -7 13 0
3 6 -14 0